NAME : grid
TYPE : TSP
DIMENSION : 50
EDGE_WEIGHT_TYPE : EUC_2D
NODE_COORD_SECTION
1 714903 459612
2 40896 460962
3 835883 51225
4 431180 747711
5 188707 462076
6 96634 790525
7 184712 601429
8 323203 195379
9 440014 250308
10 880543 663978
11 48265 189173
12 84385 765985
13 202026 110162
14 924865 849946
15 320363 103907
16 171389 583808
17 108079 687451
18 643091 916512
19 57344 628969
20 583885 87732
21 837633 699963
22 621710 587434
23 488672 395579
24 206525 403107
25 645309 117717
26 468742 658902
27 50345 280630
28 671411 366424
29 928965 878277
30 497030 434010
31 217337 556469
32 232642 925337
33 719323 905515
34 468742 916512
35 145752 141806
36 699474 646515
37 466930 641542
38 392071 671699
39 569387 692732
40 476371 313202
41 126303 621469
42 409944 101850
43 335875 59600
44 909212 240300
45 429813 827879
46 860064 957982
47 727663 116971
48 773626 380741
49 519232 443198
50 466886 759825
EOF
